\ Model Cl_45_Ins_1.lp
\ LP format - for model browsing. Use MPS format to capture full model detail.
Maximize
 
Subject To
 obj1: y[0] = 0
 obj2: y[1] = 0
 obj1_Exp: - y[0] + 98 x[0] + 94 x[1] + 94 x[2] + 93 x[3] + 93 x[4]
   + 92 x[5] + 90 x[6] + 86 x[7] + 84 x[8] + 83 x[9] + 83 x[10] + 82 x[11]
   + 81 x[12] + 72 x[13] + 72 x[14] + 71 x[15] + 70 x[16] + 68 x[17]
   + 67 x[18] + 64 x[19] + 63 x[20] + 62 x[21] + 60 x[22] + 49 x[23]
   + 49 x[24] + 46 x[25] + 42 x[26] + 40 x[27] + 38 x[28] + 38 x[29]
   + 32 x[30] + 30 x[31] + 28 x[32] + 27 x[33] + 26 x[34] + 26 x[35]
   + 25 x[36] + 23 x[37] + 22 x[38] + 20 x[39] + 16 x[40] + 13 x[41]
   + 9 x[42] + 8 x[43] + 3 x[44] = 0
 obj2_Exp: - y[1] + 63 x[0] + 58 x[1] + 49 x[2] + 49 x[3] + 65 x[4]
   + 75 x[5] + 82 x[6] + 63 x[7] + 70 x[8] + 7 x[9] + 60 x[10] + 6 x[11]
   + 54 x[12] + 33 x[13] + 45 x[14] + 19 x[15] + 58 x[16] + 79 x[17]
   + 5 x[18] + 33 x[19] + 51 x[20] + 31 x[21] + 72 x[22] + 57 x[23]
   + 71 x[24] + 87 x[25] + 59 x[26] + 33 x[27] + 28 x[28] + 22 x[29]
   + 10 x[30] + 56 x[31] + 49 x[32] + 24 x[33] + 25 x[34] + 43 x[35]
   + 87 x[36] + 90 x[37] + 12 x[38] + 9 x[39] + x[40] + 72 x[41] + 38 x[42]
   + 29 x[43] + 23 x[44] = 0
 Budget: 108 x[0] + 104 x[1] + 104 x[2] + 103 x[3] + 103 x[4] + 102 x[5]
   + 100 x[6] + 96 x[7] + 94 x[8] + 93 x[9] + 93 x[10] + 92 x[11]
   + 91 x[12] + 82 x[13] + 82 x[14] + 81 x[15] + 80 x[16] + 78 x[17]
   + 77 x[18] + 74 x[19] + 73 x[20] + 72 x[21] + 70 x[22] + 59 x[23]
   + 59 x[24] + 56 x[25] + 52 x[26] + 50 x[27] + 48 x[28] + 48 x[29]
   + 42 x[30] + 40 x[31] + 38 x[32] + 37 x[33] + 36 x[34] + 36 x[35]
   + 35 x[36] + 33 x[37] + 32 x[38] + 30 x[39] + 26 x[40] + 23 x[41]
   + 19 x[42] + 18 x[43] + 13 x[44] <= 1219
Bounds
Binaries
 x[0] x[1] x[2] x[3] x[4] x[5] x[6] x[7] x[8] x[9] x[10] x[11] x[12] x[13]
 x[14] x[15] x[16] x[17] x[18] x[19] x[20] x[21] x[22] x[23] x[24] x[25]
 x[26] x[27] x[28] x[29] x[30] x[31] x[32] x[33] x[34] x[35] x[36] x[37]
 x[38] x[39] x[40] x[41] x[42] x[43] x[44]
Generals
 y[0] y[1]
End
